300
120 120
1 84 797
2 84 759
3 84 912
4 84 418
5 84 579
6 84 474
7 83 888
8 83 853
9 82 854
10 82 649
11 82 563
12 81 672
13 81 98
14 81 977
15 81 503
16 81 717
17 80 386
18 80 991
19 80 270
20 80 851
21 80 526
22 80 523
23 79 419
24 79 185
25 78 219
26 78 227
27 78 380
28 77 130
29 77 174
30 77 228
31 77 26
32 76 695
33 76 60
34 76 566
35 76 678
36 76 639
37 76 809
38 76 684
39 75 418
40 75 366
41 75 994
42 75 637
43 75 568
44 75 341
45 75 755
46 74 329
47 74 683
48 74 737
49 74 998
50 74 761
51 73 498
52 73 438
53 72 495
54 72 830
55 72 906
56 71 980
57 71 911
58 70 371
59 70 307
60 70 385
61 70 202
62 70 502
63 70 644
64 69 230
65 69 215
66 69 88
67 69 779
68 69 34
69 69 441
70 69 905
71 69 116
72 68 44
73 68 770
74 68 116
75 67 992
76 67 211
77 66 310
78 66 302
79 66 365
80 66 175
81 66 502
82 66 474
83 65 948
84 64 200
85 64 877
86 64 520
87 64 545
88 63 547
89 63 757
90 63 876
91 63 160
92 63 193
93 62 394
94 62 51
95 62 768
96 62 239
97 61 822
98 60 178
99 59 622
100 59 309
101 59 229
102 58 768
103 58 98
104 58 74
105 58 110
106 58 841
107 58 874
108 57 315
109 57 34
110 57 539
111 56 648
112 56 349
113 56 354
114 56 554
115 56 1
116 55 798
117 55 459
118 55 65
119 55 976
120 55 357
121 55 152
122 55 230
123 55 39
124 53 643
125 53 388
126 53 811
127 53 47
128 53 304
129 52 634
130 52 903
131 52 76
132 52 773
133 52 722
134 51 419
135 51 664
136 51 939
137 51 609
138 51 192
139 50 298
140 50 532
141 50 957
142 50 171
143 50 46
144 49 505
145 49 607
146 49 845
147 48 708
148 48 569
149 48 485
150 47 67
151 47 79
152 47 76
153 46 582
154 46 631
155 46 55
156 46 877
157 45 239
158 45 740
159 45 232
160 44 357
161 44 616
162 43 775
163 43 630
164 42 35
165 42 509
166 41 566
167 41 216
168 41 697
169 40 399
170 40 496
171 40 309
172 40 343
173 39 203
174 39 652
175 39 838
176 39 279
177 38 61
178 38 993
179 38 951
180 38 639
181 38 119
182 37 323
183 36 954
184 36 201
185 36 17
186 36 558
187 36 458
188 36 683
189 36 389
190 35 307
191 35 333
192 35 48
193 34 450
194 34 492
195 34 256
196 34 804
197 34 846
198 34 81
199 33 385
200 33 396
201 33 875
202 33 658
203 33 464
204 33 738
205 32 6
206 32 118
207 32 868
208 32 562
209 31 196
210 31 652
211 30 137
212 30 952
213 29 573
214 28 55
215 28 149
216 28 512
217 28 536
218 28 683
219 28 74
220 28 781
221 27 541
222 27 129
223 27 379
224 26 762
225 26 597
226 26 648
227 25 43
228 25 518
229 25 387
230 24 856
231 24 826
232 24 189
233 24 415
234 24 38
235 24 28
236 23 852
237 23 410
238 23 777
239 23 398
240 23 238
241 22 415
242 22 612
243 22 167
244 22 198
245 22 52
246 21 360
247 21 444
248 21 229
249 21 659
250 21 527
251 21 565
252 20 720
253 20 104
254 20 279
255 20 935
256 20 822
257 19 230
258 19 549
259 19 881
260 19 682
261 18 184
262 18 11
263 18 1000
264 18 902
265 18 669
266 18 974
267 17 791
268 17 908
269 17 174
270 17 593
271 17 227
272 17 419
273 17 265
274 16 363
275 16 805
276 16 922
277 16 993
278 15 562
279 15 208
280 15 734
281 15 728
282 15 458
283 15 629
284 15 375
285 15 260
286 15 987
287 14 265
288 14 828
289 14 675
290 14 589
291 13 725
292 13 27
293 13 957
294 13 336
295 13 122
296 12 39
297 12 773
298 12 531
299 12 232
300 12 956
